Route #1: 31 46 35
Route #2: 75 93
Route #3: 81 51 83
Route #4: 1 70 54
Route #5: 23 61 100
Route #6: 5 12 58
Route #7: 44 67 88 40
Route #8: 21 56 94 80
Route #9: 68 90 84 66
Route #10: 32 33 53 73 95 24
Route #11: 69 16 55 76
Route #12: 14 49 6 37 87
Route #13: 25 65 78 42 28
Route #14: 8 17
Route #15: 4 13 74
Route #16: 92 9 86
Route #17: 3 77 63
Route #18: 15 22 41 20
Route #19: 34 64 96 48 26 47 38
Route #20: 18 10 39
Route #21: 79 11 85 30
Route #22: 27 97 19
Route #23: 52 91 50
Route #24: 59 60 82
Route #25: 7 2 45 43 29 36 72 57
Route #26: 71 62 99 98 89
Cost 27591.0000
Time 16.0007